p cnf 15 18
1 2 3 0
3 4 -5 0
2 4 -5 0
-2 5 6 0
1 3 -5 -6 0
4 5 6 0
6 7 -8 0
2 3 -5 -7 8 9 0
1 3 -5 -8 -9 0
9 3 4 -2 1 0
1 -5 9 10 11 -12 0
11 12 -13 5 -6 0
2 3 -6 7 -11 13 0
1 12 -14 0
2 4 -11 14 0
14 11 0
2 3 -5 -14 -15 0
13 14 15 0
